This is Ipopt version 3.14.16, running with linear solver MUMPS 5.7.3.

Number of nonzeros in equality constraint Jacobian...:        0
Number of nonzeros in inequality constraint Jacobian.:      190
Number of nonzeros in Lagrangian Hessian.............:        0

Total number of variables............................:       10
                     variables with only lower bounds:        0
                variables with lower and upper bounds:       10
                     variables with only upper bounds:        0
Total number of equality constraints.................:        0
Total number of inequality constraints...............:       19
        inequality constraints with only lower bounds:        0
   inequality constraints with lower and upper bounds:        0
        inequality constraints with only upper bounds:       19

iter    objective    inf_pr   inf_du lg(mu)  ||d||  lg(rg) alpha_du alpha_pr  ls
   0  3.2223832e-02 0.00e+00 8.61e-01   0.0 0.00e+00    -  0.00e+00 0.00e+00   0
   1  3.2199498e-02 0.00e+00 9.46e-02  -5.9 4.74e-02    -  9.13e-01 1.00e+00h  1
   2  3.2010060e-02 0.00e+00 1.46e-02  -6.9 6.60e-03    -  9.81e-01 1.00e+00h  1
   3  2.2493984e-02 1.54e-02 5.85e-03  -8.7 1.29e+00    -  6.91e-01 2.43e-01f  1
   4  2.1041622e-02 1.25e-01 1.42e-02  -4.3 2.07e+00    -  2.87e-01 9.26e-01h  1
   5  2.5764720e-02 0.00e+00 5.45e-03  -4.2 8.50e-01    -  7.14e-01 1.00e+00h  1
   6  2.3485078e-02 1.15e-01 3.80e-02  -3.9 3.21e-01    -  8.94e-01 8.85e-01h  1
   7  2.0708995e-02 1.10e-01 2.54e-03  -3.9 4.31e-01    -  1.00e+00 1.00e+00h  1
   8  2.3007808e-02 5.69e-03 3.02e-03  -4.3 2.37e-01    -  1.00e+00 1.00e+00h  1
   9  2.3229935e-02 0.00e+00 1.36e-03  -4.7 5.19e-01    -  1.00e+00 1.00e+00h  1
iter    objective    inf_pr   inf_du lg(mu)  ||d||  lg(rg) alpha_du alpha_pr  ls
  10  2.1880337e-02 9.82e-02 3.81e-02  -4.5 1.88e-01    -  9.22e-01 1.00e+00h  1
  11  2.0200976e-02 1.22e-01 2.55e-03  -4.3 1.89e-01    -  1.00e+00 9.41e-01h  1
  12  2.2792851e-02 1.38e-02 1.83e-03  -4.5 2.14e-01    -  9.98e-01 1.00e+00h  1
  13  2.2876269e-02 4.99e-03 1.12e-03  -5.1 1.98e-01    -  9.98e-01 1.00e+00h  1
  14  2.2604433e-02 7.15e-03 2.49e-03  -5.2 1.36e-01    -  1.00e+00 1.00e+00h  1
  15  2.2673807e-02 4.80e-04 3.60e-03  -5.6 8.50e-02    -  1.00e+00 1.00e+00h  1
  16  2.1302386e-02 3.15e-01 1.47e-01  -5.1 1.84e+00    -  1.00e+00 8.26e-01h  1
  17  2.2489730e-02 1.46e-01 8.79e-03  -5.3 7.45e-01    -  2.72e-02 6.25e-01h  1
  18  2.2954070e-02 1.16e-01 6.75e-03  -5.3 9.94e-01    -  9.42e-01 2.29e-01h  1
  19  2.5113555e-02 2.44e-02 5.88e-03  -5.3 3.11e-01    -  2.20e-01 8.78e-01h  1
iter    objective    inf_pr   inf_du lg(mu)  ||d||  lg(rg) alpha_du alpha_pr  ls
  20  2.5222369e-02 1.57e-02 4.26e-03  -5.3 2.69e-01    -  4.96e-01 4.16e-01h  1
  21  2.5186885e-02 1.44e-02 7.24e-03  -5.3 1.58e-01    -  9.82e-01 3.03e-01h  1
  22  2.4793779e-02 1.75e-02 9.52e-01  -5.3 2.84e-01    -  5.02e-04 5.17e-01f  1
  23  2.4421007e-02 1.59e-02 6.70e-01  -5.3 4.73e-01    -  4.95e-01 2.96e-01f  1
  24  2.3202484e-02 5.32e-02 1.50e+02  -5.3 5.91e-01    -  2.90e-05 9.04e-01f  1
  25  2.3445568e-02 4.22e-02 1.08e+02  -5.3 2.96e-01    -  1.17e-01 2.78e-01h  1
  26  2.3644871e-02 2.89e-02 2.83e-02  -5.3 1.05e-01    -  2.04e-01 1.00e+00h  1
  27  2.3898864e-02 6.86e-03 2.54e-03  -5.3 4.53e-02    -  9.61e-01 1.00e+00h  1
  28  2.3897776e-02 3.36e-03 2.21e-03  -5.3 3.59e-02    -  9.26e-01 6.00e-01h  1
  29  2.3666423e-02 8.00e-03 3.35e-03  -5.3 2.98e-01    -  1.00e+00 3.94e-01f  1
iter    objective    inf_pr   inf_du lg(mu)  ||d||  lg(rg) alpha_du alpha_pr  ls
  30  2.3695313e-02 7.95e-04 2.00e-01  -5.3 8.97e-02    -  1.20e-02 1.00e+00f  1
  31  2.1643890e-02 5.99e-02 1.88e-01  -5.3 1.17e+01    -  3.43e-02 5.82e-02h  1
  32  2.1858147e-02 1.07e-01 1.90e-01  -3.8 4.05e+01    -  1.26e-01 1.15e-02f  1
  33  2.2799495e-02 9.35e-02 8.71e-02  -4.7 1.13e+00    -  2.49e-01 5.54e-01H  1
  34  2.0251091e-02 1.43e-01 9.14e-01  -4.7 6.04e-01    -  1.28e-02 1.00e+00h  1
  35  2.4592801e-02 8.50e-02 1.22e-01  -4.7 1.09e+00    -  6.07e-01 8.67e-01h  1
  36  2.0970911e-02 1.01e-01 3.73e-02  -4.7 5.59e-01    -  1.24e-01 7.43e-01f  1
  37  2.0649052e-02 9.42e-02 1.05e-01  -4.0 1.66e+00    -  5.77e-01 9.05e-02f  1
  38  2.3077113e-02 7.03e-02 1.46e-01  -3.3 6.48e-01    -  1.00e+00 2.59e-01h  1
  39  2.3784072e-02 0.00e+00 6.35e-02  -3.4 1.97e-01    -  1.00e+00 1.00e+00h  1
iter    objective    inf_pr   inf_du lg(mu)  ||d||  lg(rg) alpha_du alpha_pr  ls
  40  2.3791108e-02 0.00e+00 2.17e-01  -3.4 1.50e-02    -  5.48e-01 1.00e+00h  1
  41  2.0888709e-02 0.00e+00 1.44e-01  -4.1 1.82e-02    -  1.00e+00 9.26e-01h  1
  42  1.7314147e-02 4.09e-03 4.08e-01  -4.1 8.42e-02    -  1.00e+00 4.30e-01h  1
  43  5.9423395e-03 2.84e-02 2.90e+00  -3.8 1.32e-01    -  1.00e+00 8.67e-01h  1
  44  1.1118893e-02 0.00e+00 1.45e+00  -2.6 8.48e-02    -  1.00e+00 7.19e-01h  1
  45 -4.1065578e-03 0.00e+00 3.97e+00  -3.3 6.77e-02    -  1.00e+00 1.00e+00h  1
  46 -5.8941944e-01 0.00e+00 1.55e+03  -4.2 2.22e-01    -  1.00e+00 3.36e-01f  1
  47 -6.0983705e-01 0.00e+00 1.89e+03  -2.0 3.42e+00    -  1.14e-02 1.11e-02f  4
  48 -1.2472785e+00 0.00e+00 7.37e+03  -1.6 2.34e-01    -  2.73e-02 2.52e-02F  1
  49 -2.9524661e+00 0.00e+00 3.88e+04  -1.1 4.12e+01    -  1.00e+00 1.56e-03f  3
iter    objective    inf_pr   inf_du lg(mu)  ||d||  lg(rg) alpha_du alpha_pr  ls
  50  8.2782454e-02 8.92e-02 7.13e+03   0.9 2.85e+02    -  7.83e-03 5.46e-02f  1
  51  2.6624412e-02 0.00e+00 2.55e+02  -0.8 1.54e+01    -  9.80e-01 1.00e+00f  1
  52  4.4152177e-02 0.00e+00 1.39e+03  -0.8 6.92e-01    -  2.40e-01 1.00e+00f  1
  53  5.3216068e-02 0.00e+00 9.57e+01  -0.8 5.44e-01    -  6.26e-01 1.00e+00f  1
  54  5.9453622e-02 0.00e+00 1.15e+02  -0.8 3.91e-01    -  5.87e-01 1.00e+00f  1
  55  6.4929708e-02 0.00e+00 1.85e+01  -0.8 2.44e-01    -  5.99e-01 1.00e+00f  1
  56  8.5581299e-02 0.00e+00 1.87e+01  -0.8 6.99e-01    -  6.09e-01 1.00e+00f  1
  57  9.0786692e-02 0.00e+00 2.98e+00  -0.8 1.68e-01    -  6.43e-01 1.00e+00f  1
  58  9.3536687e-02 0.00e+00 1.88e+00  -0.8 1.50e-01    -  7.49e-01 1.00e+00f  1
  59  9.7061180e-02 0.00e+00 6.56e-03  -0.8 1.67e-01    -  1.00e+00 1.00e+00f  1
iter    objective    inf_pr   inf_du lg(mu)  ||d||  lg(rg) alpha_du alpha_pr  ls
  60  9.6145070e-02 0.00e+00 7.37e-04  -1.5 2.40e-02    -  1.00e+00 1.00e+00h  1
  61  8.9299455e-02 0.00e+00 3.01e-02  -7.5 1.82e-01    -  8.90e-01 1.00e+00f  1
  62  3.5174322e-02 0.00e+00 7.98e-03  -2.6 1.80e+00    -  1.00e+00 1.00e+00h  1
  63  4.6851693e-02 0.00e+00 2.30e-03  -2.6 6.00e-01    -  1.00e+00 1.00e+00h  1
  64  2.3571884e-02 1.12e-01 6.75e-03  -3.9 9.99e-01    -  7.00e-01 8.79e-01h  1
  65  2.4477012e-02 4.72e-03 1.67e-02  -3.9 3.60e-01    -  7.06e-01 1.00e+00h  1
  66  2.4240400e-02 3.53e-04 4.34e-03  -3.9 7.25e-02    -  1.00e+00 1.00e+00h  1
  67  2.3233867e-02 2.13e-02 7.95e-03  -3.9 3.11e-01    -  1.00e+00 1.00e+00h  1
  68  2.3779280e-02 0.00e+00 1.27e-03  -3.9 8.78e-02    -  1.00e+00 1.00e+00h  1
  69  2.3906067e-02 0.00e+00 8.89e-04  -3.9 2.52e-02    -  1.00e+00 1.00e+00h  1
iter    objective    inf_pr   inf_du lg(mu)  ||d||  lg(rg) alpha_du alpha_pr  ls
  70  2.3469071e-02 3.05e-03 1.66e-03  -5.8 5.33e-02    -  9.18e-01 8.90e-01h  1
  71  2.3355687e-02 4.19e-03 1.54e-03  -5.8 1.47e-01    -  1.00e+00 1.00e+00h  1
  72  2.2918694e-02 1.83e-02 3.25e-03  -5.8 3.57e-01    -  3.15e-01 5.19e-01h  1
  73  2.2511039e-02 2.40e-02 8.04e-03  -5.8 3.64e-01    -  2.35e-01 9.75e-01h  1
  74  2.2144066e-02 8.27e-02 1.92e-02  -5.8 1.34e+00    -  3.01e-01 3.00e-01h  1
  75  2.2101143e-02 7.93e-02 1.69e-02  -5.8 4.31e-01    -  1.82e-01 4.46e-02h  1
  76  2.2005187e-02 4.79e-02 9.20e-03  -5.8 4.67e-01    -  1.00e+00 4.83e-01h  1
  77  2.0574345e-02 1.97e-01 7.78e-03  -5.8 5.64e+00    -  2.26e-02 1.25e-01h  1
  78  2.1233105e-02 1.62e-01 5.46e-03  -5.8 1.09e+00    -  2.89e-01 1.10e-01h  1
  79  2.1627471e-02 1.43e-01 5.33e-03  -5.8 2.26e-01    -  9.28e-02 1.16e-01h  4
iter    objective    inf_pr   inf_du lg(mu)  ||d||  lg(rg) alpha_du alpha_pr  ls
  80  2.1996134e-02 1.26e-01 5.11e-03  -5.8 2.45e-01    -  4.18e-02 1.25e-01h  4
  81  2.2002312e-02 1.25e-01 5.10e-03  -5.8 4.18e-01    -  4.45e-02 3.04e-03h  9
  82  2.2005051e-02 1.25e-01 5.10e-03  -5.8 4.40e-01    -  9.96e-02 1.44e-03h 10
  83  2.2005755e-02 1.25e-01 5.10e-03  -5.8 4.29e-01    -  5.23e-02 3.68e-04h 12
  84  2.2069117e-02 1.22e-01 6.57e-03  -5.8 1.29e-01    -  3.55e-02 2.45e-02h  1
  85  2.2920636e-02 6.75e-02 5.33e-03  -5.8 1.50e-01    -  1.54e-01 6.59e-01h  1
  86  2.3248333e-02 4.85e-02 3.67e-03  -5.8 1.50e-01    -  6.79e-01 3.19e-01h  1
  87  2.3210328e-02 4.01e-02 2.64e+00  -5.8 1.56e-01    -  5.13e-04 1.00e+00h  1
  88  2.3783356e-02 1.06e-02 2.01e-03  -5.8 6.85e-02    -  3.61e-01 1.00e+00h  1
  89  2.3885356e-02 2.26e-03 1.33e-03  -5.8 1.13e-01    -  7.14e-01 6.82e-01h  1
iter    objective    inf_pr   inf_du lg(mu)  ||d||  lg(rg) alpha_du alpha_pr  ls
  90  2.2495845e-02 7.99e-02 1.11e-02  -5.8 8.19e+00    -  5.61e-02 8.58e-02h  1
  91  2.3345360e-02 1.56e-02 3.07e-03  -5.8 2.42e-01    -  1.65e-02 1.00e+00h  1
  92  2.2995425e-02 9.93e-03 2.87e-03  -5.8 2.86e-01    -  7.80e-01 9.04e-01h  1
  93  2.3424149e-02 6.51e-03 2.46e-03  -5.8 5.37e-01    -  1.00e+00 8.12e-01h  1
  94  2.2648177e-02 1.95e-02 1.51e-01  -5.8 5.25e-01    -  2.96e-03 2.92e-01h  1
  95  2.2785915e-02 1.82e-02 1.07e-01  -5.8 2.10e-01    -  6.59e-01 3.02e-01h  2
  96  2.2671985e-02 6.97e-03 1.88e-02  -5.8 6.18e-02    -  8.92e-01 8.24e-01h  1
  97  2.2720237e-02 2.45e-03 2.26e-03  -5.8 4.82e-02    -  1.00e+00 1.00e+00h  1
  98  2.2743800e-02 3.07e-04 4.46e-03  -5.8 9.23e-02    -  1.00e+00 6.86e-01h  1
  99  2.2112306e-02 3.41e-02 5.86e-03  -5.9 7.30e-01    -  3.05e-01 5.21e-01h  1
iter    objective    inf_pr   inf_du lg(mu)  ||d||  lg(rg) alpha_du alpha_pr  ls
 100  2.1813147e-02 3.30e-02 4.05e-03  -6.0 2.93e-01    -  4.37e-02 1.00e+00h  1

Number of Iterations....: 100

                                   (scaled)                 (unscaled)
Objective...............:   2.1813146715338207e-02    2.1813146715338207e-02
Dual infeasibility......:   4.0495292882304686e-03    4.0495292882304686e-03
Constraint violation....:   3.3044908847512149e-02    3.3044908847512149e-02
Variable bound violation:   0.0000000000000000e+00    0.0000000000000000e+00
Complementarity.........:   4.2645864717317911e-06    4.2645864717317911e-06
Overall NLP error.......:   3.3044908847512149e-02    3.3044908847512149e-02


Number of objective function evaluations             = 151
Number of objective gradient evaluations             = 101
Number of equality constraint evaluations            = 0
Number of inequality constraint evaluations          = 151
Number of equality constraint Jacobian evaluations   = 0
Number of inequality constraint Jacobian evaluations = 101
Number of Lagrangian Hessian evaluations             = 0
Total seconds in IPOPT                               = 7.781

EXIT: Maximum Number of Iterations Exceeded.
